(set-logic QF_S)
(declare-fun var0 () String)
(declare-fun var1 () String)
(declare-fun var2 () String)
(declare-fun var3 () Int)
(declare-fun var4 () Int)
(declare-fun var5 () Int)
(declare-fun var6 () Bool)
(declare-fun var7 () Bool)
(declare-fun var8 () Bool)
(assert (str.in.re var1 re.allchar))
(assert (str.prefixof (str.substr (str.replace var0 var1 var2) (str.len var2) (str.indexof "W\\Q,%ggM%m" var0 var5)) (str.replace var2 var0 "?c1\\+wOI|""")))
(assert (str.prefixof var2 var0))
(assert (<= (str.indexof var1 var0 var4) (str.len (str.substr var1 var5 var3))))
(check-sat)